0 154 138 12 184 116 68 150 80 163 24 29 121 54 0 0 196 77 3 79 169 34 164 28 76 109 129 177 0 0 111 102 157 81 120 9 135 35 136 78 130 50 0 0 176 103 161 20 65 33 1 134 66 158 132 0 0 27 162 101 70 30 160 128 131 32 90 181 122 71 51 0 0 167 127 190 31 189 10 159 126 63 60 188 0 0 148 62 182 123 19 107 175 11 64 49 185 88 0 0 52 153 106 82 48 124 47 168 36 143 8 18 69 17 151 0 0 89 166 118 83 199 114 174 125 45 84 146 7 0 0 147 6 96 104 99 5 173 61 16 86 113 46 95 0 0 112 183 59 85 91 141 108 93 0 0 94 92 37 98 100 193 192 119 44 140 195 156 194 38 0 0 13 137 117 87 144 57 178 2 172 42 142 14 43 15 191 0 0 53 152 58 73 171 133 22 75 41 145 115 97 40 0 0 105 180 21 198 72 197 56 186 23 67 74 0 0 26 149 179 110 155 4 139 187 39 170 25 55 165 0
